%block lattice_cart
ANG
10.0   0.0   0.0
0.0  10.0   0.0
0.0   0.0  10.0
%endblock lattice_cart

%block positions_frac
H   0.1   0.1   0.099380480724825
F   0.1   0.1   0.192319519275175
%endblock positions_frac

%block cell_constraints
0   0   0
0   0   0
%endblock cell_constraints

%block species_pot
SOC19
%endblock species_pot

%block kpoints_list
0.25 0.25 0.25 1.0
%endblock kpoints_list

fix_com : True 

